Maximize
  0 x0 + 0 x1 - 11 x2 + 27 x3 + 0 x4 + 0 x5 + 0 x6 - 43 x7 + 0 x8 + 23 x9
   + 0 x10 + 22 x11 + 0 x12 - 41 x13 + 0 x14 + 13 x15 + 0 x16 + 0 x17
   + 0 x18 + 0 x19 + 0 x20 + 27 x21 - 7 x22 + 6 x23 - 6 x24 + 0 x25 + 0 x26
   + 0 x27 + 0 x28 + 0 x29 + 10 x30 + 0 x31 + 0 x32 + 0 x33 - 36 x34
   + 0 x35 + 0 x36 + 0 x37 + 17 x38 + 0 x39 + 17 x40 + 45 x41 + 0 x42
   + 0 x43 - 37 x44 - 33 x45 + 0 x46 + 0 x47 + 0 x48 + 0 x49 + 0 x50
   + 0 x51 - 17 x52 + 0 x53 + 46 x54 + 0 x55 - x56 + 0 x57 + 48 x58
   - 49 x59 + 0 x60 - 27 x61 + 0 x62 - 33 x63 + 47 x64 + 0 x65 + 0 x66
   - 42 x67 + 5 x68 + 0 x69 + 0 x70 + 0 x71 + 0 x72 - 32 x73 + 0 x74
   + 25 x75 + 0 x76 - 41 x77 - 37 x78 + 0 x79 + [ 41 x0 ^2 + 12 x0 * x2
   - 90 x0 * x7 + 42 x0 * x9 + 4 x0 * x10 + 46 x0 * x12 - 40 x0 * x14
   + 84 x0 * x15 + 28 x0 * x16 - 98 x0 * x18 - 12 x0 * x19 + 2 x0 * x20
   + 92 x0 * x23 - 32 x0 * x25 - 82 x0 * x27 + 38 x0 * x29 + 70 x0 * x30
   + 30 x0 * x34 + 14 x0 * x36 + 46 x0 * x37 + 38 x0 * x38 - 98 x0 * x39
   - 82 x0 * x42 + 2 x0 * x46 + 6 x0 * x50 - 24 x0 * x51 + 2 x0 * x53
   - 16 x0 * x54 + 86 x0 * x55 + 46 x0 * x60 + 90 x0 * x66 + 36 x0 * x68
   - 70 x0 * x71 - 20 x0 * x72 + 92 x0 * x74 - 82 x0 * x75 - 54 x0 * x77
   + 42 x0 * x78 - 40 x1 * x4 - 72 x1 * x5 + 10 x1 * x7 - 34 x1 * x8
   - 12 x1 * x11 + 20 x1 * x12 - 66 x1 * x15 - 94 x1 * x18 + 38 x1 * x19
   - 46 x1 * x21 - 60 x1 * x22 + 62 x1 * x25 - 78 x1 * x26 - 6 x1 * x32
   + 76 x1 * x34 + 36 x1 * x35 + 16 x1 * x39 - 18 x1 * x40 + 94 x1 * x42
   - 96 x1 * x43 + 24 x1 * x45 + 34 x1 * x51 + 44 x1 * x54 - 16 x1 * x55
   - 32 x1 * x57 + 72 x1 * x59 - 72 x1 * x60 - 10 x1 * x61 - 58 x1 * x62
   - 2 x1 * x63 + 36 x1 * x64 + 64 x1 * x69 + 64 x1 * x70 + 60 x1 * x72
   - 90 x1 * x75 + 26 x1 * x77 - 32 x2 ^2 - 6 x2 * x3 - 88 x2 * x4
   + 50 x2 * x6 - 14 x2 * x7 - 60 x2 * x8 - 66 x2 * x12 - 32 x2 * x14
   + 46 x2 * x15 + 14 x2 * x19 + 6 x2 * x22 - 30 x2 * x25 - 8 x2 * x26
   - 78 x2 * x27 - 54 x2 * x28 + 50 x2 * x32 - 62 x2 * x36 + 68 x2 * x38
   - 36 x2 * x40 + 32 x2 * x44 - 86 x2 * x45 + 56 x2 * x47 - 16 x2 * x48
   - 90 x2 * x49 + 96 x2 * x53 + 2 x2 * x54 + 44 x2 * x55 - 96 x2 * x56
   - 28 x2 * x57 + 14 x2 * x58 + 2 x2 * x60 - 24 x2 * x61 - 18 x2 * x67
   - 52 x2 * x68 + 10 x2 * x72 + 72 x2 * x73 - 4 x2 * x74 + 52 x2 * x75
   + 58 x3 * x4 - 50 x3 * x6 - 6 x3 * x8 + 18 x3 * x9 + 28 x3 * x10
   + 4 x3 * x11 - 38 x3 * x14 - 42 x3 * x16 + 70 x3 * x17 - 16 x3 * x19
   - 66 x3 * x20 + 68 x3 * x22 - 32 x3 * x23 + 84 x3 * x25 + 16 x3 * x26
   - 4 x3 * x28 - 70 x3 * x30 + 64 x3 * x33 - 22 x3 * x37 - 66 x3 * x38
   - 38 x3 * x40 + 68 x3 * x41 + 10 x3 * x42 + 66 x3 * x46 - 62 x3 * x50
   + 36 x3 * x52 - 50 x3 * x54 - 2 x3 * x55 + 86 x3 * x56 + 66 x3 * x57
   - 90 x3 * x58 - 82 x3 * x59 - 48 x3 * x60 - 26 x3 * x62 + 78 x3 * x64
   + 38 x3 * x65 + 40 x3 * x67 + 44 x3 * x71 - 46 x3 * x72 + 60 x3 * x76
   + 6 x3 * x79 + 80 x4 * x11 - 56 x4 * x12 + 8 x4 * x19 + 40 x4 * x21
   + 86 x4 * x22 - 56 x4 * x24 + 24 x4 * x27 - 14 x4 * x28 - 98 x4 * x29
   - 70 x4 * x33 - 82 x4 * x37 - 6 x4 * x38 - 96 x4 * x43 - 20 x4 * x44
   - 94 x4 * x46 + 54 x4 * x47 - 4 x4 * x48 + 78 x4 * x50 + 24 x4 * x54
   - 98 x4 * x58 - 2 x4 * x59 - 56 x4 * x61 - 92 x4 * x62 + 78 x4 * x63
   - 48 x4 * x65 - 92 x4 * x67 - 12 x4 * x76 + 18 x4 * x77 - 50 x5 * x9
   - 72 x5 * x10 + 78 x5 * x11 - 30 x5 * x14 + 94 x5 * x15 - 86 x5 * x17
   + 36 x5 * x22 - 8 x5 * x23 + 60 x5 * x24 - 10 x5 * x27 + 64 x5 * x29
   - 4 x5 * x30 + 20 x5 * x31 + 6 x5 * x32 - 74 x5 * x33 - 36 x5 * x36
   + 10 x5 * x39 - 74 x5 * x42 - 86 x5 * x43 - 34 x5 * x44 - 54 x5 * x46
   - 62 x5 * x47 + 36 x5 * x48 - 36 x5 * x49 + 2 x5 * x56 + 90 x5 * x58
   + 72 x5 * x60 - 80 x5 * x62 + 80 x5 * x64 + 22 x5 * x65 - 54 x5 * x67
   - 16 x5 * x69 + 8 x5 * x70 - 44 x5 * x75 - 46 x5 * x76 - 14 x5 * x78
   - 98 x5 * x79 + 34 x6 * x8 - 4 x6 * x14 - 94 x6 * x17 + 68 x6 * x22
   - 86 x6 * x23 - 86 x6 * x24 - 10 x6 * x25 + 2 x6 * x26 - 56 x6 * x31
   + 82 x6 * x32 + 18 x6 * x34 + 16 x6 * x36 + 50 x6 * x38 - 40 x6 * x39
   + 56 x6 * x40 - 86 x6 * x49 - 48 x6 * x51 + 78 x6 * x52 - 94 x6 * x53
   + 34 x6 * x54 - 12 x6 * x58 + 14 x6 * x59 - 24 x6 * x60 - 40 x6 * x65
   + 94 x6 * x67 + 36 x6 * x74 - 18 x6 * x75 - 54 x6 * x76 - 2 x6 * x78
   - 50 x6 * x79 + 11 x7 ^2 + 96 x7 * x8 - 90 x7 * x9 + 26 x7 * x14
   - 62 x7 * x17 - 18 x7 * x20 - 48 x7 * x23 + 70 x7 * x24 - 6 x7 * x26
   - 50 x7 * x27 + 50 x7 * x28 - 26 x7 * x32 + 2 x7 * x33 - 96 x7 * x35
   + 34 x7 * x37 - 14 x7 * x39 - 84 x7 * x40 - 46 x7 * x41 - 16 x7 * x42
   + 6 x7 * x44 - 32 x7 * x45 + 40 x7 * x46 - 38 x7 * x47 + 24 x7 * x52
   + 74 x7 * x55 - 32 x7 * x57 - 38 x7 * x62 - 58 x7 * x64 - 4 x7 * x67
   - 44 x7 * x68 + 8 x7 * x72 + 66 x7 * x73 - 2 x7 * x74 + 70 x7 * x77
   - 24 x7 * x78 + 86 x7 * x79 + 38 x8 * x14 - 82 x8 * x16 + 42 x8 * x17
   - 28 x8 * x18 + 6 x8 * x23 + 52 x8 * x24 + 50 x8 * x25 + 38 x8 * x26
   + 30 x8 * x28 + 34 x8 * x31 + 76 x8 * x32 - 66 x8 * x36 - 98 x8 * x37
   + 60 x8 * x38 + 50 x8 * x40 + 88 x8 * x41 - 74 x8 * x43 + 24 x8 * x44
   - 40 x8 * x46 - 48 x8 * x49 + 38 x8 * x54 + 6 x8 * x55 + 60 x8 * x56
   + 4 x8 * x57 - 8 x8 * x60 - 30 x8 * x61 + 34 x8 * x62 + 48 x8 * x63
   + 18 x8 * x67 - 90 x8 * x72 + 4 x8 * x74 + 2 x8 * x77 - 38 x8 * x78
   + 94 x9 * x10 - 60 x9 * x12 - 78 x9 * x13 - 48 x9 * x14 - 78 x9 * x15
   - 92 x9 * x16 - 36 x9 * x17 - 56 x9 * x18 + 58 x9 * x21 - 62 x9 * x22
   - 4 x9 * x24 - 38 x9 * x27 + 64 x9 * x29 - 20 x9 * x31 + 34 x9 * x33
   + 58 x9 * x35 + 24 x9 * x38 - 80 x9 * x39 - 98 x9 * x41 + 48 x9 * x42
   + 80 x9 * x43 - 4 x9 * x44 + 4 x9 * x46 + 32 x9 * x48 - 50 x9 * x49
   + 58 x9 * x52 - 24 x9 * x54 + 56 x9 * x55 + 70 x9 * x56 + 10 x9 * x57
   + 80 x9 * x58 + 78 x9 * x60 - 34 x9 * x62 + 8 x9 * x63 - 76 x9 * x64
   - 48 x9 * x65 + 14 x9 * x66 + 56 x9 * x68 - 48 x9 * x69 - 42 x9 * x70
   + 18 x9 * x75 + 10 x9 * x78 - 92 x9 * x79 - 20 x10 ^2 + 58 x10 * x12
   + 4 x10 * x15 - 80 x10 * x20 - 86 x10 * x27 + 76 x10 * x28
   - 78 x10 * x34 + 6 x10 * x39 + 44 x10 * x41 + 20 x10 * x42
   - 20 x10 * x49 - 46 x10 * x50 + 48 x10 * x51 - 18 x10 * x52
   - 72 x10 * x54 - 36 x10 * x55 - 84 x10 * x56 + 64 x10 * x60
   - 6 x10 * x61 - 62 x10 * x64 + 58 x10 * x65 + 34 x10 * x66
   - 14 x10 * x68 + 84 x10 * x69 - 8 x10 * x70 + 70 x10 * x73
   - 72 x10 * x77 + 44 x10 * x79 + x11 ^2 + 50 x11 * x13 + 18 x11 * x15
   - 14 x11 * x16 - 90 x11 * x17 - 82 x11 * x18 - 38 x11 * x19
   - 6 x11 * x21 + 6 x11 * x22 + 26 x11 * x23 - 14 x11 * x24 - 76 x11 * x27
   - 30 x11 * x28 + 96 x11 * x29 - 2 x11 * x30 + 40 x11 * x32
   - 46 x11 * x34 - 52 x11 * x35 + 76 x11 * x41 + 4 x11 * x44
   - 20 x11 * x46 + 78 x11 * x49 - 24 x11 * x50 + 18 x11 * x53
   + 24 x11 * x55 + 28 x11 * x57 + 10 x11 * x59 - 70 x11 * x62
   + 92 x11 * x66 - 50 x11 * x68 + 18 x11 * x69 - 44 x11 * x71
   + 76 x11 * x73 - 78 x11 * x79 - 46 x12 ^2 - 84 x12 * x13 - 8 x12 * x15
   - 44 x12 * x17 - 74 x12 * x21 - 64 x12 * x22 - 30 x12 * x24
   - 78 x12 * x25 - 62 x12 * x28 - 58 x12 * x35 + 66 x12 * x39
   - 20 x12 * x40 + 42 x12 * x41 + 70 x12 * x42 - 82 x12 * x46
   + 56 x12 * x48 - 88 x12 * x49 - 74 x12 * x54 + 74 x12 * x55
   - 96 x12 * x57 - 10 x12 * x60 + 52 x12 * x64 + 64 x12 * x66
   + 16 x12 * x67 + 74 x12 * x72 - 16 x12 * x73 - 10 x12 * x75
   - 94 x12 * x78 - 88 x13 * x15 - 54 x13 * x20 + 54 x13 * x21
   + 62 x13 * x23 + 86 x13 * x24 + 96 x13 * x25 - 74 x13 * x26
   + 48 x13 * x27 + 50 x13 * x28 - 6 x13 * x34 + 38 x13 * x37
   + 70 x13 * x39 - 92 x13 * x42 + 66 x13 * x43 + 18 x13 * x44
   - 60 x13 * x46 + 16 x13 * x48 - 68 x13 * x51 + 10 x13 * x52
   + 16 x13 * x53 + 76 x13 * x55 - 98 x13 * x59 + 68 x13 * x60
   + 94 x13 * x62 - 90 x13 * x67 + 16 x13 * x68 - 26 x13 * x75
   + 58 x13 * x76 - 74 x13 * x77 - 10 x13 * x78 + 72 x13 * x79 - 32 x14 ^2
   - 80 x14 * x15 + 96 x14 * x16 + 92 x14 * x17 - 88 x14 * x18
   - 18 x14 * x22 + 68 x14 * x26 + 20 x14 * x30 + 32 x14 * x34
   + 66 x14 * x35 - 42 x14 * x37 + 40 x14 * x39 + 58 x14 * x40
   - 8 x14 * x42 - 98 x14 * x43 + 88 x14 * x47 - 20 x14 * x48 + 4 x14 * x51
   - 50 x14 * x52 + 46 x14 * x53 - 90 x14 * x55 + 60 x14 * x56
   - 10 x14 * x60 + 46 x14 * x63 + 74 x14 * x65 + 82 x14 * x66
   + 96 x14 * x72 + 14 x14 * x74 - 10 x14 * x76 - 40 x14 * x77
   - 90 x14 * x78 - 15 x15 ^2 - 86 x15 * x18 - 40 x15 * x20 + 22 x15 * x22
   + 22 x15 * x27 - 78 x15 * x28 + 24 x15 * x36 - 10 x15 * x37
   + 52 x15 * x38 - 32 x15 * x39 - 80 x15 * x41 - 34 x15 * x42
   + 98 x15 * x43 - 18 x15 * x45 - 60 x15 * x47 + 28 x15 * x49
   - 16 x15 * x51 + 64 x15 * x52 + 90 x15 * x53 - 70 x15 * x54
   + 8 x15 * x55 + 44 x15 * x58 + 22 x15 * x60 + 24 x15 * x61
   + 96 x15 * x65 + 96 x15 * x66 - 28 x15 * x67 - 42 x15 * x72
   - 56 x15 * x73 - 74 x15 * x74 - 82 x16 * x18 - 78 x16 * x19
   + 10 x16 * x20 - 8 x16 * x21 + 70 x16 * x24 - 16 x16 * x25
   + 52 x16 * x26 - 64 x16 * x29 + 22 x16 * x35 + 28 x16 * x37
   - 36 x16 * x38 - 46 x16 * x40 + 88 x16 * x42 + 42 x16 * x43
   + 42 x16 * x44 - 58 x16 * x45 + 70 x16 * x46 - 60 x16 * x49
   - 94 x16 * x50 - 74 x16 * x52 - 24 x16 * x53 - 34 x16 * x54
   - 82 x16 * x55 + 68 x16 * x56 - 30 x16 * x60 + 76 x16 * x61
   - 42 x16 * x62 + 80 x16 * x64 - 12 x16 * x66 - 32 x16 * x67
   - 96 x16 * x73 - 70 x16 * x74 - 4 x16 * x77 + 44 x17 ^2 - 54 x17 * x20
   + 92 x17 * x21 - 38 x17 * x22 - 82 x17 * x24 + 10 x17 * x27
   + 8 x17 * x28 - 12 x17 * x29 - 68 x17 * x30 - 8 x17 * x31 - 42 x17 * x34
   - 26 x17 * x39 - 14 x17 * x45 - 10 x17 * x47 - 80 x17 * x48
   + 46 x17 * x51 - 80 x17 * x52 - 24 x17 * x53 - 52 x17 * x54
   - 66 x17 * x55 + 18 x17 * x64 + 28 x17 * x65 + 46 x17 * x66
   + 50 x17 * x67 + 42 x17 * x68 + 60 x17 * x72 - 42 x17 * x73
   - 54 x17 * x75 + 60 x17 * x77 + 88 x18 * x20 + 44 x18 * x21
   - 80 x18 * x22 - 46 x18 * x23 - 2 x18 * x26 - 30 x18 * x30 + 4 x18 * x31
   - 54 x18 * x33 - 24 x18 * x39 - 10 x18 * x42 + 14 x18 * x43
   + 90 x18 * x44 - 50 x18 * x46 - 76 x18 * x48 + 72 x18 * x49
   - 82 x18 * x54 - 12 x18 * x56 + 22 x18 * x57 + 80 x18 * x59
   + 58 x18 * x60 - 12 x18 * x61 + 50 x18 * x65 + 82 x18 * x70
   + 74 x18 * x75 - 4 x18 * x77 - 40 x18 * x78 - 2 x19 ^2 - 62 x19 * x21
   + 92 x19 * x23 - 38 x19 * x26 - 18 x19 * x28 + 96 x19 * x30
   - 94 x19 * x31 - 10 x19 * x32 - 10 x19 * x33 + 72 x19 * x34
   + 56 x19 * x36 + 54 x19 * x39 - 88 x19 * x41 + 8 x19 * x44
   - 10 x19 * x45 - 6 x19 * x50 - 80 x19 * x51 - 48 x19 * x57
   - 40 x19 * x58 - 18 x19 * x59 + 96 x19 * x60 - 72 x19 * x61
   + 58 x19 * x62 - 56 x19 * x63 - 30 x19 * x64 - 80 x19 * x65
   - 94 x19 * x67 - 84 x19 * x71 - 6 x19 * x72 - 52 x19 * x75
   + 24 x19 * x76 - 30 x19 * x79 - 2 x20 * x21 - 52 x20 * x26
   - 14 x20 * x28 - 6 x20 * x31 - 82 x20 * x33 - 78 x20 * x36
   - 32 x20 * x38 + 46 x20 * x42 - 28 x20 * x46 + 22 x20 * x49
   + 28 x20 * x53 + 56 x20 * x55 + 12 x20 * x56 + 72 x20 * x57
   - 34 x20 * x58 + 68 x20 * x62 - 16 x20 * x64 + 68 x20 * x65
   - 32 x20 * x66 + 62 x20 * x68 - 86 x20 * x73 + 40 x20 * x74
   - 32 x20 * x75 - 2 x20 * x77 + 78 x20 * x79 - 24 x21 * x22
   + 18 x21 * x23 + 86 x21 * x24 - 42 x21 * x26 + 16 x21 * x28
   + 12 x21 * x29 + 46 x21 * x30 + 94 x21 * x36 + 94 x21 * x39
   - 94 x21 * x40 + 30 x21 * x42 - 44 x21 * x44 - 58 x21 * x47
   + 74 x21 * x48 - 58 x21 * x51 - 18 x21 * x59 - 92 x21 * x61
   + 26 x21 * x62 + 16 x21 * x64 + 86 x21 * x67 + 8 x21 * x69
   - 96 x21 * x72 - 24 x21 * x73 + 46 x21 * x74 - 32 x21 * x75
   + 72 x21 * x77 + 42 x21 * x79 + 10 x22 * x23 + 78 x22 * x24
   + 2 x22 * x25 - 18 x22 * x26 + 42 x22 * x30 + 52 x22 * x32
   + 56 x22 * x34 - 82 x22 * x35 + 22 x22 * x36 - 50 x22 * x37
   + 26 x22 * x38 - 6 x22 * x41 + 6 x22 * x42 + 52 x22 * x43 + 64 x22 * x45
   + 60 x22 * x46 + 54 x22 * x47 - 46 x22 * x48 + 52 x22 * x49
   + 28 x22 * x53 - 70 x22 * x56 + 42 x22 * x62 + 2 x22 * x63
   - 26 x22 * x66 + 88 x22 * x73 - 22 x22 * x78 - 24 x22 * x79
   + 22 x23 * x24 - 28 x23 * x25 - 80 x23 * x27 + 70 x23 * x28
   - 72 x23 * x31 - 4 x23 * x32 + 6 x23 * x34 - 40 x23 * x44 - 30 x23 * x45
   + 20 x23 * x47 + 26 x23 * x48 - 80 x23 * x51 - 28 x23 * x53
   - 16 x23 * x56 - 62 x23 * x57 - 72 x23 * x60 + 44 x23 * x64
   + 72 x23 * x65 + 60 x23 * x74 - 36 x23 * x76 + 29 x24 ^2 + 76 x24 * x25
   - 24 x24 * x26 + 78 x24 * x27 - 86 x24 * x36 + 50 x24 * x42
   + 84 x24 * x45 + 8 x24 * x49 - 10 x24 * x52 + 98 x24 * x54
   - 84 x24 * x55 - 6 x24 * x56 + 50 x24 * x58 + 62 x24 * x66
   + 62 x24 * x67 - 72 x24 * x68 + 20 x24 * x70 - 22 x24 * x72
   + 32 x24 * x73 + 62 x24 * x75 - 30 x24 * x78 + 26 x25 ^2 - 54 x25 * x26
   + 90 x25 * x30 + 14 x25 * x32 - 86 x25 * x34 - 4 x25 * x35
   - 62 x25 * x36 + 76 x25 * x37 + 26 x25 * x40 - 84 x25 * x41
   - 40 x25 * x42 - 34 x25 * x43 - 68 x25 * x44 + 68 x25 * x46
   + 32 x25 * x48 - 20 x25 * x50 + 46 x25 * x51 - 42 x25 * x52
   - 70 x25 * x53 - 60 x25 * x54 - 84 x25 * x55 - 30 x25 * x69
   - 42 x25 * x70 + 16 x25 * x71 - 38 x25 * x72 + 74 x25 * x73
   - 96 x25 * x74 - 22 x25 * x75 + 16 x25 * x76 - 12 x25 * x78
   + 92 x26 * x27 + 48 x26 * x29 + 48 x26 * x31 + 86 x26 * x34
   - 22 x26 * x36 - 82 x26 * x38 + 98 x26 * x40 + 96 x26 * x42
   - 4 x26 * x43 - 26 x26 * x47 + 24 x26 * x51 + 4 x26 * x54 + 40 x26 * x60
   - 44 x26 * x64 - 44 x26 * x66 - 24 x26 * x76 - 74 x26 * x77
   - 46 x26 * x79 - 44 x27 ^2 - 32 x27 * x28 + 50 x27 * x31 - 42 x27 * x32
   - 34 x27 * x35 - 98 x27 * x37 - 60 x27 * x38 - 8 x27 * x39
   + 48 x27 * x42 - 56 x27 * x44 + 28 x27 * x45 + 54 x27 * x46
   + 6 x27 * x50 + 24 x27 * x51 + 28 x27 * x52 + 38 x27 * x53
   - 76 x27 * x55 - 82 x27 * x57 - 12 x27 * x58 - 30 x27 * x60
   - 20 x27 * x61 - 32 x27 * x63 - 32 x27 * x64 + 24 x27 * x67
   - 4 x27 * x68 - 42 x27 * x70 - 58 x27 * x71 - 58 x27 * x72
   + 88 x27 * x73 + 46 x27 * x75 - 66 x27 * x77 - 2 x28 * x31
   - 10 x28 * x33 + 32 x28 * x34 - 4 x28 * x35 - 16 x28 * x38
   + 28 x28 * x40 - 4 x28 * x43 - 8 x28 * x45 - 82 x28 * x49 + 90 x28 * x50
   - 84 x28 * x54 - 4 x28 * x55 - 94 x28 * x63 - 96 x28 * x65
   - 12 x28 * x70 - 56 x28 * x76 - 88 x28 * x79 - 74 x29 * x30
   + 40 x29 * x33 - 10 x29 * x36 - 32 x29 * x37 - 8 x29 * x39 - 2 x29 * x43
   + 52 x29 * x44 + 88 x29 * x46 + 90 x29 * x48 - 12 x29 * x53
   - 50 x29 * x54 + 90 x29 * x56 - 42 x29 * x57 + 4 x29 * x59
   - 78 x29 * x60 + 38 x29 * x62 + 8 x29 * x64 + 10 x29 * x65
   + 28 x29 * x66 - 90 x29 * x70 + 16 x29 * x75 - 94 x29 * x77
   - 72 x30 * x31 + 10 x30 * x34 + 86 x30 * x39 - 62 x30 * x41
   + 4 x30 * x44 - 22 x30 * x45 - 36 x30 * x46 - 22 x30 * x47
   + 22 x30 * x48 - 24 x30 * x53 - 12 x30 * x56 - 24 x30 * x57
   + 90 x30 * x58 + 88 x30 * x59 - 42 x30 * x60 - 96 x30 * x61
   + 74 x30 * x62 - 82 x30 * x63 - 4 x30 * x64 - 6 x30 * x65 + 94 x30 * x66
   + 90 x30 * x68 + 84 x30 * x69 + 48 x30 * x71 + 62 x30 * x76
   + 82 x30 * x78 + 86 x30 * x79 - 8 x31 * x33 + 74 x31 * x40
   + 92 x31 * x43 - 8 x31 * x45 + 40 x31 * x50 - 84 x31 * x52
   - 70 x31 * x53 - 12 x31 * x55 + 84 x31 * x56 + 78 x31 * x58
   - 92 x31 * x59 + 56 x31 * x62 + 90 x31 * x64 + 40 x31 * x67
   - 14 x31 * x68 + 56 x31 * x69 - 28 x31 * x73 - 38 x31 * x74
   - 62 x31 * x75 + 10 x31 * x78 - 4 x31 * x79 - 40 x32 ^2 + 50 x32 * x35
   + 8 x32 * x36 + 88 x32 * x37 + 82 x32 * x40 + 22 x32 * x42
   + 28 x32 * x44 + 60 x32 * x45 + 78 x32 * x46 + 98 x32 * x47
   - 38 x32 * x48 - 6 x32 * x49 - 38 x32 * x52 + 54 x32 * x54
   + 36 x32 * x55 + 12 x32 * x64 - 84 x32 * x65 + 68 x32 * x66
   + 64 x32 * x74 + 16 x32 * x75 + 24 x32 * x76 - 30 x32 * x77
   + 22 x32 * x78 + 34 x32 * x79 - 66 x33 * x34 - 60 x33 * x35
   + 26 x33 * x37 - 30 x33 * x40 + 46 x33 * x41 + 34 x33 * x44
   - 46 x33 * x48 + 14 x33 * x56 - 92 x33 * x57 + 70 x33 * x58
   - 86 x33 * x60 + 98 x33 * x65 - 66 x33 * x66 + 34 x33 * x67
   + 60 x33 * x72 + 68 x33 * x73 + 38 x33 * x75 + 76 x33 * x76 - 36 x34 ^2
   + 98 x34 * x35 - 70 x34 * x36 + 50 x34 * x38 + 60 x34 * x40
   - 78 x34 * x41 - 96 x34 * x42 + 88 x34 * x44 + 6 x34 * x45
   + 20 x34 * x46 - 36 x34 * x47 - 20 x34 * x48 - 56 x34 * x50
   - 38 x34 * x51 + 92 x34 * x55 - 64 x34 * x68 + 36 x34 * x70
   - 92 x34 * x71 - 78 x34 * x73 + 14 x34 * x79 + 70 x35 * x36
   + 20 x35 * x38 - 50 x35 * x41 - 86 x35 * x42 - 72 x35 * x44
   + 50 x35 * x45 + 44 x35 * x46 + 80 x35 * x48 - 78 x35 * x50
   + 88 x35 * x51 - 94 x35 * x53 - 96 x35 * x55 + 30 x35 * x57
   + 46 x35 * x61 + 88 x35 * x64 - 24 x35 * x66 - 24 x35 * x67
   + 52 x35 * x68 - 28 x35 * x70 - 48 x35 * x71 + 78 x35 * x72
   + 90 x35 * x73 + 36 x35 * x74 + 56 x35 * x75 - 54 x35 * x76
   + 58 x36 * x39 + 12 x36 * x41 + 34 x36 * x43 + 96 x36 * x45
   - 24 x36 * x46 + 88 x36 * x51 - 86 x36 * x53 + 66 x36 * x54
   + 64 x36 * x56 + 80 x36 * x57 + 14 x36 * x58 + 78 x36 * x64
   + 78 x36 * x66 + 64 x36 * x67 + 58 x36 * x70 - 34 x36 * x75
   + 32 x36 * x77 + 10 x37 * x40 - 38 x37 * x43 + 70 x37 * x51
   - 24 x37 * x52 + 80 x37 * x53 + 62 x37 * x54 - 74 x37 * x55
   - 86 x37 * x57 - 38 x37 * x60 + 92 x37 * x61 + 32 x37 * x64
   + 36 x37 * x66 - 48 x37 * x67 - 80 x37 * x69 + 54 x37 * x70
   - 92 x37 * x71 + 92 x37 * x72 + 56 x37 * x77 - 31 x38 ^2 - 72 x38 * x41
   + 98 x38 * x42 - 82 x38 * x45 - 48 x38 * x47 - 98 x38 * x55
   - 74 x38 * x59 - 46 x38 * x60 - 26 x38 * x64 + 42 x38 * x65
   - 96 x38 * x66 + 98 x38 * x67 + 64 x38 * x69 + 66 x38 * x70
   + 74 x38 * x71 + 38 x38 * x74 + 64 x38 * x75 - 14 x38 * x76
   + 50 x38 * x77 + 64 x38 * x78 - 22 x39 * x40 - 58 x39 * x44
   + 38 x39 * x45 + 90 x39 * x46 - 28 x39 * x48 + 34 x39 * x49
   + 86 x39 * x50 - 38 x39 * x54 + 68 x39 * x57 + 62 x39 * x58
   - 74 x39 * x59 + 46 x39 * x60 + 44 x39 * x62 + 50 x39 * x64
   - 40 x39 * x65 - 96 x39 * x66 - 62 x39 * x69 - 30 x39 * x70
   + 86 x39 * x73 - 80 x39 * x76 + 28 x39 * x77 - 32 x39 * x78
   - 30 x40 * x43 - 42 x40 * x46 + 66 x40 * x50 - 26 x40 * x52
   - 54 x40 * x54 + 92 x40 * x55 - 70 x40 * x56 - 16 x40 * x61
   - 86 x40 * x62 - 32 x40 * x66 + 88 x40 * x69 + 2 x40 * x70 - 2 x40 * x73
   - 96 x40 * x78 - 88 x40 * x79 + 13 x41 ^2 - 44 x41 * x42 - 30 x41 * x43
   - 2 x41 * x44 - 76 x41 * x45 - 70 x41 * x49 - 4 x41 * x50 - 60 x41 * x52
   + 78 x41 * x55 + 88 x41 * x56 + 32 x41 * x57 - 44 x41 * x60
   - 96 x41 * x65 - 58 x41 * x66 + 22 x41 * x67 - 76 x41 * x68
   - 62 x41 * x69 - 90 x41 * x70 - 46 x41 * x73 - 42 x41 * x74
   + 44 x41 * x75 + 14 x41 * x76 - 41 x42 ^2 - 16 x42 * x43 - 20 x42 * x44
   + 74 x42 * x48 - 48 x42 * x49 - 66 x42 * x50 - 58 x42 * x52
   - 72 x42 * x53 + 66 x42 * x54 - 52 x42 * x57 + 62 x42 * x58
   + 4 x42 * x61 - 22 x42 * x63 + 64 x42 * x64 - 68 x42 * x65
   + 64 x42 * x67 + 84 x42 * x68 - 10 x42 * x69 + 68 x42 * x70
   + 28 x42 * x76 + 58 x42 * x77 + 62 x43 * x44 - 28 x43 * x45
   - 86 x43 * x49 - 74 x43 * x51 + 30 x43 * x52 + 54 x43 * x53
   - 88 x43 * x54 - 46 x43 * x55 + 2 x43 * x56 - 86 x43 * x62
   - 92 x43 * x63 - 16 x43 * x64 - 64 x43 * x67 - 24 x43 * x69
   - 98 x43 * x70 - 16 x43 * x72 - 38 x43 * x74 + 50 x43 * x76
   + 80 x43 * x78 + 42 x44 ^2 - 68 x44 * x46 + 12 x44 * x52 + 48 x44 * x55
   + 60 x44 * x57 - 48 x44 * x58 - 32 x44 * x59 + 36 x44 * x63
   - 4 x44 * x65 + 50 x44 * x66 - 18 x44 * x68 - 8 x44 * x70 - 32 x44 * x77
   + 58 x45 * x46 - 96 x45 * x47 + 18 x45 * x49 + 80 x45 * x51
   + 54 x45 * x53 - 78 x45 * x56 + 64 x45 * x57 - 78 x45 * x58
   - 42 x45 * x63 + 10 x45 * x65 - 80 x45 * x66 + 44 x45 * x68
   + 54 x45 * x69 + 56 x45 * x72 - 66 x45 * x75 - 96 x45 * x76
   + 36 x45 * x79 + 26 x46 ^2 - 4 x46 * x49 + 98 x46 * x50 - 36 x46 * x51
   - 60 x46 * x52 - 44 x46 * x53 - 14 x46 * x54 + 10 x46 * x55
   + 80 x46 * x58 + 48 x46 * x60 - 54 x46 * x62 - 52 x46 * x63
   - 56 x46 * x67 - 4 x46 * x68 + 18 x46 * x69 + 28 x46 * x70
   + 54 x46 * x71 + 52 x46 * x73 + 96 x46 * x75 + 60 x46 * x79 + 15 x47 ^2
   - 16 x47 * x52 + 76 x47 * x54 + 68 x47 * x56 + 4 x47 * x57
   + 82 x47 * x59 - 30 x47 * x61 + 42 x47 * x63 + 34 x47 * x67
   + 70 x47 * x72 - 44 x47 * x73 + 58 x47 * x75 + 42 x47 * x76
   + 78 x47 * x78 - 47 x48 ^2 + 26 x48 * x51 - 22 x48 * x52 - 44 x48 * x55
   - 78 x48 * x58 - 52 x48 * x59 + 98 x48 * x60 + 76 x48 * x61
   + 70 x48 * x65 + 98 x48 * x66 + 24 x48 * x67 + 4 x48 * x71
   + 92 x48 * x73 + 78 x48 * x76 - 28 x48 * x78 + 56 x48 * x79 - 14 x49 ^2
   - 30 x49 * x50 - 58 x49 * x51 + 64 x49 * x52 + 30 x49 * x54
   + 28 x49 * x55 + 80 x49 * x57 + 96 x49 * x58 + 14 x49 * x61
   - 46 x49 * x62 + 76 x49 * x64 + 94 x49 * x65 + 16 x49 * x66
   - 60 x49 * x68 - 28 x49 * x69 + 12 x49 * x70 + 12 x49 * x71
   - 84 x49 * x72 - 76 x49 * x73 - 88 x49 * x75 + 34 x49 * x77
   - 42 x49 * x78 - 8 x50 ^2 + 94 x50 * x51 - 50 x50 * x52 + 40 x50 * x54
   - 28 x50 * x55 + 66 x50 * x60 + 98 x50 * x62 - 70 x50 * x66
   + 66 x50 * x68 - 62 x50 * x70 - 6 x50 * x71 + 44 x50 * x73
   + 64 x50 * x75 - 28 x50 * x76 - 18 x51 * x52 + 90 x51 * x53
   + 52 x51 * x58 + 98 x51 * x61 + 76 x51 * x66 + 44 x51 * x67
   + 26 x51 * x71 + 40 x51 * x73 - 28 x51 * x74 - 84 x51 * x75
   + 32 x51 * x78 - 64 x52 * x53 - 76 x52 * x54 - 52 x52 * x55
   - 38 x52 * x57 + 72 x52 * x59 + 78 x52 * x61 - 64 x52 * x62
   + 12 x52 * x63 + 54 x52 * x64 + 6 x52 * x66 + 58 x52 * x68
   + 44 x52 * x70 - 96 x52 * x71 + 74 x52 * x72 + 38 x52 * x73
   + 52 x52 * x79 - 45 x53 ^2 - 2 x53 * x54 - 22 x53 * x56 - 18 x53 * x57
   - 58 x53 * x58 - 90 x53 * x61 - 68 x53 * x63 - 34 x53 * x65
   - 98 x53 * x66 + 78 x53 * x68 + 2 x53 * x72 - 22 x53 * x74
   - 94 x53 * x75 + 88 x53 * x76 + 28 x54 ^2 - 4 x54 * x55 + 82 x54 * x57
   - 66 x54 * x58 - 44 x54 * x59 + 20 x54 * x64 + 6 x54 * x66
   - 66 x54 * x68 - 28 x54 * x70 - 28 x54 * x71 - 14 x54 * x72
   + 48 x54 * x74 + 58 x54 * x75 + 62 x54 * x77 + 64 x54 * x79
   - 42 x55 * x56 - 62 x55 * x58 + 70 x55 * x60 + 96 x55 * x61
   + 2 x55 * x62 + 66 x55 * x63 + 30 x55 * x65 + 62 x55 * x70 + 8 x55 * x71
   + 62 x55 * x72 + 44 x55 * x73 + 64 x55 * x75 + 48 x55 * x77
   - 44 x55 * x79 + 88 x56 * x59 - 70 x56 * x60 - 94 x56 * x61
   - 30 x56 * x62 - 72 x56 * x64 + 36 x56 * x65 + 28 x56 * x66
   + 68 x56 * x69 + 32 x56 * x73 + 98 x56 * x74 + 42 x56 * x75
   - 36 x56 * x76 - 56 x57 * x61 + 84 x57 * x62 - 28 x57 * x63
   - 46 x57 * x65 - 48 x57 * x66 - 90 x57 * x67 + 86 x57 * x70
   - 20 x57 * x72 + 24 x57 * x73 + 84 x57 * x74 + 12 x57 * x76
   - 30 x57 * x77 + 80 x57 * x78 + 72 x58 * x59 + 26 x58 * x60
   + 26 x58 * x62 - 50 x58 * x63 + 74 x58 * x64 + 32 x58 * x68
   - 34 x58 * x69 + 62 x58 * x70 + 72 x58 * x72 + 92 x58 * x73
   - 44 x58 * x74 - 72 x58 * x75 - 76 x58 * x77 - 74 x58 * x79 + 7 x59 ^2
   + 34 x59 * x61 - 12 x59 * x64 - 18 x59 * x65 + 44 x59 * x67
   + 60 x59 * x69 + 98 x59 * x71 - 52 x59 * x79 + 92 x60 * x61
   + 70 x60 * x63 - 10 x60 * x64 + 98 x60 * x65 - 24 x60 * x74
   + 80 x60 * x75 - 32 x60 * x76 - 20 x61 ^2 + 20 x61 * x62 - 66 x61 * x63
   - 92 x61 * x65 - 76 x61 * x68 + 42 x61 * x69 - 8 x61 * x71
   - 40 x61 * x72 - 20 x61 * x73 + 64 x61 * x74 - 14 x61 * x76
   + 66 x61 * x77 - 72 x61 * x79 + 76 x62 * x64 + 4 x62 * x65
   - 12 x62 * x66 + 22 x62 * x69 - 88 x62 * x70 + 54 x62 * x71
   - 92 x62 * x73 - 98 x62 * x75 - 14 x62 * x77 + 88 x62 * x78 + 26 x63 ^2
   + 38 x63 * x65 + 20 x63 * x66 - 22 x63 * x68 + 98 x63 * x71
   - 36 x63 * x72 - 16 x63 * x75 + 18 x63 * x77 - 4 x63 * x79
   - 46 x64 * x71 + 32 x64 * x72 - 38 x64 * x74 + 44 x64 * x75
   + 86 x64 * x77 + 9 x65 ^2 + 84 x65 * x66 + 36 x65 * x67 + 72 x65 * x69
   + 58 x65 * x70 - 42 x65 * x72 + 86 x65 * x73 + 24 x65 * x77
   - 34 x66 * x71 + 6 x66 * x72 + 4 x66 * x75 + 16 x66 * x77 + 4 x66 * x78
   - 58 x66 * x79 - 30 x67 * x70 + 40 x67 * x73 - 6 x67 * x75
   + 52 x67 * x76 - 56 x67 * x78 + 64 x67 * x79 + 78 x68 * x69
   + 8 x68 * x71 - 14 x68 * x73 + 92 x68 * x74 + 72 x68 * x76 + 4 x68 * x77
   + 44 x68 * x78 - 6 x68 * x79 - 96 x69 * x71 - 62 x69 * x75
   + 34 x69 * x79 + 40 x70 * x73 + 22 x70 * x75 + 24 x70 * x76
   - 34 x70 * x78 - 58 x70 * x79 + 42 x71 * x72 + 8 x71 * x73
   - 32 x71 * x74 - 54 x71 * x76 - 94 x71 * x77 + 38 x71 * x78
   - 24 x72 * x74 + 66 x73 * x74 - 20 x73 * x75 - 40 x73 * x76
   - 82 x74 * x77 + 30 x74 * x79 - 22 x75 ^2 - 34 x75 * x77 - 56 x75 * x78
   + 84 x75 * x79 - 46 x76 * x78 - 21 x77 ^2 + 34 x77 * x79 ] / 2 
Subject To
Bounds
 x0 <= 1
 x1 <= 1
 x2 <= 1
 x3 <= 1
 x4 <= 1
 x5 <= 1
 x6 <= 1
 x7 <= 1
 x8 <= 1
 x9 <= 1
 x10 <= 1
 x11 <= 1
 x12 <= 1
 x13 <= 1
 x14 <= 1
 x15 <= 1
 x16 <= 1
 x17 <= 1
 x18 <= 1
 x19 <= 1
 x20 <= 1
 x21 <= 1
 x22 <= 1
 x23 <= 1
 x24 <= 1
 x25 <= 1
 x26 <= 1
 x27 <= 1
 x28 <= 1
 x29 <= 1
 x30 <= 1
 x31 <= 1
 x32 <= 1
 x33 <= 1
 x34 <= 1
 x35 <= 1
 x36 <= 1
 x37 <= 1
 x38 <= 1
 x39 <= 1
 x40 <= 1
 x41 <= 1
 x42 <= 1
 x43 <= 1
 x44 <= 1
 x45 <= 1
 x46 <= 1
 x47 <= 1
 x48 <= 1
 x49 <= 1
 x50 <= 1
 x51 <= 1
 x52 <= 1
 x53 <= 1
 x54 <= 1
 x55 <= 1
 x56 <= 1
 x57 <= 1
 x58 <= 1
 x59 <= 1
 x60 <= 1
 x61 <= 1
 x62 <= 1
 x63 <= 1
 x64 <= 1
 x65 <= 1
 x66 <= 1
 x67 <= 1
 x68 <= 1
 x69 <= 1
 x70 <= 1
 x71 <= 1
 x72 <= 1
 x73 <= 1
 x74 <= 1
 x75 <= 1
 x76 <= 1
 x77 <= 1
 x78 <= 1
 x79 <= 1
End
